num_tasks=62;
num_machines=3;
comp_cost=[|0, 0, 0, 
|51, 107, 94,
|61, 137, 56,
|56, 149, 144,
|69, 109, 104,
|142, 146, 129,
|59, 96, 92,
|125, 87, 108,
|50, 53, 65,
|101, 75, 106,
|86, 103, 144,
|146, 55, 84,
|95, 100, 128,
|54, 113, 136,
|52, 106, 85,
|113, 137, 65,
|105, 124, 70,
|59, 53, 90,
|90, 83, 59,
|110, 94, 120,
|57, 141, 90,
|90, 133, 75,
|149, 90, 123,
|125, 95, 55,
|143, 58, 103,
|118, 85, 90,
|83, 59, 108,
|68, 50, 126,
|52, 50, 113,
|60, 61, 91,
|68, 63, 109,
|112, 108, 64,
|147, 97, 92,
|88, 73, 100,
|58, 65, 139,
|118, 50, 121,
|134, 111, 97,
|81, 72, 115,
|88, 91, 50,
|131, 121, 141,
|114, 106, 94,
|99, 65, 51,
|88, 145, 83,
|96, 74, 86,
|56, 92, 55,
|57, 119, 126,
|67, 101, 60,
|117, 108, 72,
|139, 129, 62,
|139, 143, 66,
|69, 95, 104,
|62, 141, 56,
|103, 94, 134,
|105, 116, 80,
|76, 58, 123,
|96, 133, 99,
|114, 87, 87,
|117, 73, 114,
|144, 148, 144,
|98, 120, 93,
|126, 107, 97,
|0, 0, 0|];
comm_cost=[|0,0,0,0,0,0,0,0,0,0,0,0,0,0,0,0,0,0,0,0,0,0,0,0,0,0,0,0,0,0,0,0,0,0,0,0,0
,0,0,0,0,0,0,0,0,0,0,0,0,0,0,0,0,0,0,0,0,0,0,0,0,0,
|0,0,131,68,69,87,75,135,103,141,97,96,140,72,66,112,144,100
,126,106,144,55,69,77,106,90,77,0,0,0,0,0,0,0,0,0
,0,0,0,0,0,0,0,0,0,0,0,0,0,0,0,0,0,0
,0,0,0,0,0,0,0,0,
|0,0,0,0,0,0,71,0,128,75,0,0,0,0,0,91,71,94
,132,117,101,0,0,76,88,113,61,0,0,134,0,0,105,0,95,0
,53,146,140,118,103,141,117,52,138,110,134,131,0,0,0,0,0,0
,0,0,0,0,0,0,0,0,
|0,0,0,0,67,148,0,0,131,57,118,84,0,147,104,110,76,96
,0,0,0,134,0,0,0,0,0,0,0,0,0,103,131,0,0,0
,0,62,131,0,0,0,93,0,0,0,114,0,0,0,0,0,131,0
,138,67,105,67,0,0,0,0,
|0,0,0,0,0,0,0,0,0,0,54,0,0,91,0,0,97,0
,0,89,81,111,0,0,0,0,123,0,0,65,0,92,84,142,97,0
,0,57,0,0,117,0,0,106,119,0,0,69,95,143,0,0,0,0
,0,0,122,0,101,0,0,0,
|0,0,0,0,0,0,0,130,0,0,132,130,111,108,0,125,124,0
,101,0,0,99,0,0,0,104,85,0,0,0,145,76,71,0,0,0
,139,0,0,0,0,0,0,68,113,60,85,137,148,0,77,144,0,0
,137,87,66,124,0,0,0,0,
|0,0,0,0,0,0,0,111,0,0,86,62,0,0,91,117,83,128
,0,0,126,0,103,0,0,139,0,0,0,137,145,50,94,0,0,0
,0,0,125,0,0,0,146,0,51,0,0,0,112,115,0,147,124,0
,53,131,0,0,147,115,0,0,
|0,0,0,0,0,0,0,0,0,0,105,0,0,147,0,85,0,0
,64,127,0,118,143,85,0,106,0,0,0,100,0,131,0,0,128,0
,0,89,0,0,0,146,0,0,54,0,70,73,144,89,0,0,0,82
,0,0,0,134,64,131,0,0,
|0,0,0,0,0,0,0,0,0,113,86,0,114,0,111,0,0,0
,104,0,118,0,91,76,0,73,137,0,0,0,0,91,0,0,69,0
,0,0,0,0,0,0,0,137,0,64,0,74,0,86,118,58,0,0
,130,148,0,135,0,144,0,0,
|0,0,0,0,0,0,0,0,0,0,140,64,0,97,0,93,60,114
,0,0,100,0,61,103,52,89,84,0,0,0,0,137,0,0,132,0
,0,139,78,0,0,0,0,0,0,120,0,0,0,0,94,0,118,0
,82,55,0,0,0,88,0,0,
|0,0,0,0,0,0,0,0,0,0,0,78,75,0,0,0,108,85
,99,145,123,0,0,63,0,67,133,0,0,0,142,142,0,105,67,109
,0,0,0,0,0,0,56,0,0,56,0,0,0,56,0,0,89,52
,58,0,0,0,0,0,0,0,
|0,0,0,0,0,0,0,0,0,0,0,0,0,0,65,101,114,69
,121,0,123,0,144,0,73,103,77,0,0,0,0,70,0,0,0,0
,0,0,80,0,0,0,0,120,94,73,0,120,0,58,129,0,138,0
,0,0,0,62,104,0,0,0,
|0,0,0,0,0,0,0,0,0,0,0,0,0,142,0,0,102,127
,79,77,0,136,0,100,0,71,0,0,0,0,0,71,58,0,76,94
,0,64,0,0,0,0,0,0,83,0,72,75,0,0,121,140,0,85
,120,100,0,75,121,106,0,0,
|0,0,0,0,0,0,0,0,0,0,0,0,0,0,0,0,111,99
,139,76,136,136,0,0,0,84,0,0,0,0,0,90,116,61,124,0
,0,0,137,0,0,0,0,0,63,0,69,0,0,0,0,137,0,147
,0,0,0,0,140,0,0,0,
|0,0,0,0,0,0,0,0,0,0,0,0,0,0,0,0,58,0
,95,94,0,126,52,96,0,0,0,0,0,0,0,74,55,0,0,0
,0,0,115,0,0,0,0,0,0,0,54,110,0,0,0,90,0,0
,0,123,0,0,0,0,0,0,
|0,0,0,0,0,0,0,0,0,0,0,0,0,0,0,0,0,94
,0,0,0,103,0,113,0,128,93,0,0,0,0,102,0,0,89,0
,0,0,58,0,0,0,0,0,132,56,0,0,0,0,118,66,0,76
,0,71,0,71,0,0,0,0,
|0,0,0,0,0,0,0,0,0,0,0,0,0,0,0,0,0,0
,80,84,114,53,0,145,0,0,0,0,0,0,0,0,0,95,0,77
,0,58,58,0,0,0,0,0,0,0,58,126,0,0,0,140,0,55
,0,74,0,140,0,136,0,0,
|0,0,0,0,0,0,0,0,0,0,0,0,0,0,0,0,0,0
,0,0,0,0,0,0,111,0,0,0,0,0,0,0,0,0,0,84
,136,136,0,0,0,0,0,0,0,139,0,134,0,0,0,124,89,70
,0,135,0,0,62,136,0,0,
|0,0,0,0,0,0,0,0,0,0,0,0,0,0,0,0,0,0
,0,0,141,68,75,114,110,0,64,0,0,0,0,61,136,0,0,112
,81,110,50,0,0,0,0,0,0,0,0,0,0,0,0,61,128,0
,79,78,0,0,93,0,0,0,
|0,0,0,0,0,0,0,0,0,0,0,0,0,0,0,0,0,0
,0,0,0,0,0,54,0,111,94,0,0,0,0,0,0,0,0,117
,50,0,70,0,0,0,0,0,0,0,0,0,0,0,0,0,72,71
,0,0,0,0,0,0,0,0,
|0,0,0,0,0,0,0,0,0,0,0,0,0,0,0,0,0,0
,0,0,0,128,0,0,89,0,0,0,0,0,0,0,0,0,75,120
,99,0,0,0,0,0,0,0,0,0,0,71,0,0,0,0,0,0
,0,0,0,121,0,0,0,0,
|0,0,0,0,0,0,0,0,0,0,0,0,0,0,0,0,0,0
,0,0,0,0,0,0,124,112,0,0,0,0,0,0,0,0,0,0
,105,92,0,0,0,0,0,0,0,0,0,0,0,0,0,0,0,139
,92,0,0,0,0,0,0,0,
|0,0,0,0,0,0,0,0,0,0,0,0,0,0,0,0,0,0
,0,0,0,0,0,110,123,0,50,0,0,0,0,0,0,0,0,0
,0,0,77,0,0,0,0,0,0,0,0,0,0,0,0,0,0,0
,59,0,0,0,0,0,0,0,
|0,0,0,0,0,0,0,0,0,0,0,0,0,0,0,0,0,0
,0,0,0,0,0,0,0,51,79,0,0,0,0,0,0,0,0,0
,0,0,149,0,0,0,0,0,0,0,0,0,0,0,0,0,0,146
,101,0,0,0,0,0,0,0,
|0,0,0,0,0,0,0,0,0,0,0,0,0,0,0,0,0,0
,0,0,0,0,0,0,0,102,0,0,0,0,0,0,0,0,0,0
,0,99,0,0,0,0,0,0,0,0,0,0,0,0,0,0,0,0
,135,0,0,0,0,0,0,0,
|0,0,0,0,0,0,0,0,0,0,0,0,0,0,0,0,0,0
,0,0,0,0,0,0,0,0,0,0,0,0,0,0,0,0,0,0
,0,0,136,0,0,0,0,0,0,0,0,0,0,0,0,0,0,0
,0,0,0,0,0,0,0,0,
|0,0,0,0,0,0,0,0,0,0,0,0,0,0,0,0,0,0,0,0,0,0,0,0,0,0,0,0,0,0,0,0,0,0,0,0,0
,0,0,0,0,0,0,0,0,0,0,0,0,0,0,0,0,0,0,0,0,0,0,0,0,0,
|0,0,0,96,114,61,143,0,0,0,99,133,0,0,107,0,58,0
,0,0,0,73,147,100,98,122,0,0,113,86,131,93,117,123,135,74
,123,138,59,0,0,0,0,0,0,0,0,0,0,0,0,0,0,0
,0,0,0,0,0,0,0,0,
|0,0,0,0,0,135,50,0,84,0,60,60,0,66,0,54,65,0
,147,114,97,0,0,130,89,115,126,0,0,128,0,0,0,0,63,50
,0,129,0,0,0,116,67,106,0,0,137,0,0,102,50,0,0,0
,112,119,0,0,0,0,0,0,
|0,0,0,0,0,0,0,0,0,109,0,0,0,123,89,0,0,127
,0,0,68,0,0,87,0,67,94,0,0,0,0,0,134,78,0,109
,0,0,0,0,0,146,0,0,54,89,100,0,0,0,0,64,111,51
,122,0,0,91,0,62,0,0,
|0,0,0,0,0,0,0,0,0,0,0,102,63,61,94,55,103,0
,101,136,133,141,0,95,0,62,0,0,0,0,0,148,0,0,0,0
,0,92,58,0,0,0,0,0,0,0,106,69,0,0,125,0,69,0
,0,92,0,134,113,78,0,0,
|0,0,0,0,0,0,0,0,0,0,0,0,0,0,0,0,0,0
,0,0,134,127,136,58,0,77,0,0,0,0,0,0,0,100,138,0
,0,0,0,0,0,0,0,0,0,0,99,81,0,0,0,87,0,0
,64,0,0,55,80,0,0,0,
|0,0,0,0,0,0,0,0,0,0,0,0,0,0,0,0,0,0
,0,0,91,148,0,58,100,97,0,0,0,0,0,0,0,0,70,71
,0,0,128,0,0,0,0,0,0,0,100,0,0,0,0,72,0,0
,139,0,0,0,0,58,0,0,
|0,0,0,0,0,0,0,0,0,0,0,0,0,0,0,0,0,0
,0,0,0,0,95,0,0,91,0,0,0,0,0,0,0,0,135,92
,136,0,0,0,0,0,0,0,0,0,0,0,0,0,0,0,0,122
,74,0,0,0,0,0,0,0,
|0,0,0,0,0,0,0,0,0,0,0,0,0,0,0,0,0,0
,0,0,0,0,0,0,0,113,0,0,0,0,0,0,0,0,0,143
,101,0,107,0,0,0,0,0,0,0,62,0,0,0,0,0,0,0
,0,0,0,0,146,0,0,0,
|0,0,0,0,0,0,0,0,0,0,0,0,0,0,0,0,0,0
,0,0,0,61,0,85,89,114,0,0,0,0,0,0,0,0,0,0
,60,66,111,0,0,0,0,0,0,0,0,116,0,0,0,0,0,0
,116,0,0,0,60,0,0,0,
|0,0,0,0,0,0,0,0,0,0,0,0,0,0,0,0,0,0,0,0,0,0,0,0
,77,90,0,0,0,0,0,0,0,0,0,0,0,0,81,0,0,0,0,0,0,0,91,59
,0,0,0,0,0,0,0,0,0,0,0,0,0,0,
|0,0,0,0,0,0,0,0,0,0,0,0,0,0,0,0,0,0
,0,0,0,0,0,0,0,108,0,0,0,0,0,0,0,0,0,0
,0,0,0,0,0,0,0,0,0,0,0,0,0,0,0,0,0,0
,138,0,0,0,0,0,0,0,
|0,0,0,0,0,0,0,0,0,0,0,0,0,0,0,0,0,0
,0,0,0,0,0,0,0,0,131,0,0,0,0,0,0,0,0,0
,0,0,0,0,0,0,0,0,0,0,0,0,0,0,0,0,0,0
,0,0,0,0,0,0,0,0,
|0,0,0,59,0,129,0,104,0,0,115,60,0,73,0,88,89,126
,0,135,0,0,0,0,85,138,100,0,0,91,0,0,137,0,0,0
,0,0,0,0,131,0,99,0,0,95,80,0,146,137,143,50,94,145
,120,0,0,0,0,0,0,0,
|0,0,0,0,0,0,0,0,134,0,105,0,0,0,99,107,118,113
,0,0,0,0,68,0,71,0,134,0,0,50,0,0,0,0,0,0
,73,0,77,0,0,61,0,0,0,0,0,0,0,138,129,0,90,0
,0,0,68,89,87,106,0,0,
|0,0,0,0,0,0,0,0,0,69,66,0,77,0,0,89,124,0
,0,0,0,0,0,0,65,99,101,0,0,0,0,147,0,95,0,0
,140,145,0,0,0,0,0,0,76,0,0,0,0,92,0,0,70,0
,0,96,0,114,112,140,0,0,
|0,0,0,0,0,0,0,0,0,0,0,0,0,0,0,0,97,0
,79,0,0,0,0,0,59,0,69,0,0,0,0,51,148,124,92,0
,0,0,0,0,0,0,0,0,0,0,142,0,0,0,0,84,104,137
,0,96,0,0,93,143,0,0,
|0,0,0,0,0,0,0,0,0,0,0,0,0,54,84,50,105,0
,0,0,0,0,123,92,70,0,85,0,0,0,0,149,52,0,0,93
,102,0,105,0,0,0,0,0,131,0,136,144,0,0,0,0,0,108
,88,59,0,0,0,136,0,0,
|0,0,0,0,0,0,0,0,0,0,0,0,0,0,0,0,0,0
,105,94,94,0,0,0,86,67,0,0,0,0,0,105,123,55,109,0
,146,0,0,0,0,0,0,0,0,62,0,59,0,0,0,149,0,121
,132,0,0,140,87,137,0,0,
|0,0,0,0,0,0,0,0,0,0,0,0,0,0,0,0,0,0
,0,0,0,0,0,59,61,144,0,0,0,0,0,0,0,71,145,0
,0,0,56,0,0,0,0,0,0,0,144,80,0,0,0,106,130,0
,0,0,0,80,0,107,0,0,
|0,0,0,0,0,0,0,0,0,0,0,0,0,0,0,0,0,0
,0,0,0,0,0,108,72,133,57,0,0,0,0,0,0,0,0,0
,0,0,0,0,0,0,0,0,0,0,0,106,0,0,0,0,0,136
,0,0,0,0,0,0,0,0,
|0,0,0,0,0,0,0,0,0,0,0,0,0,0,0,0,0,0
,0,0,0,0,0,0,0,0,140,0,0,0,0,0,0,0,0,0
,0,125,0,0,0,0,0,0,0,0,0,0,0,0,0,0,0,0
,125,0,0,0,0,0,0,0,
|0,0,0,0,0,0,0,0,0,69,74,110,0,51,106,0,121,60
,122,66,114,104,0,0,0,0,130,0,0,142,0,105,142,61,0,0
,112,77,130,0,0,0,0,0,117,0,107,0,0,115,0,0,50,75
,0,0,0,0,0,145,54,0,
|0,0,0,0,0,0,0,0,0,0,0,0,0,0,100,106,0,0
,126,0,0,0,0,61,96,68,50,0,0,0,0,139,99,0,53,0
,0,148,113,0,0,0,0,0,0,0,64,0,0,0,0,0,122,0
,0,0,0,0,121,0,0,0,
|0,0,0,0,0,0,0,0,0,0,0,0,0,0,0,0,0,0
,110,0,146,0,0,0,59,0,0,0,0,0,0,67,122,0,0,148
,51,140,0,0,0,0,0,0,0,118,89,128,0,0,0,0,0,0
,136,0,0,0,104,0,0,0,
|0,0,0,0,0,0,0,0,0,0,0,0,0,0,0,0,0,0
,0,0,96,74,126,109,61,0,142,0,0,0,0,0,0,0,0,118
,85,0,148,0,0,0,0,0,0,0,0,116,0,0,0,0,126,72
,71,85,0,53,62,74,0,0,
|0,0,0,0,0,0,0,0,0,0,0,0,0,0,0,0,0,0
,0,0,0,0,0,114,0,0,137,0,0,0,0,0,0,0,84,0
,0,0,94,0,0,0,0,0,0,0,0,0,0,0,0,0,0,0
,88,79,0,0,0,83,0,0,
|0,0,0,0,0,0,0,0,0,0,0,0,0,0,0,0,0,0
,0,0,0,0,0,0,89,101,89,0,0,0,0,0,0,0,0,0
,0,80,111,0,0,0,0,0,0,0,0,81,0,0,0,0,0,0
,0,0,0,0,0,0,0,0,
|0,0,0,0,0,0,0,0,0,0,0,0,0,0,0,0,0,0
,0,0,0,0,0,0,0,65,115,0,0,0,0,0,0,0,0,0
,0,0,0,0,0,0,0,0,0,0,0,0,0,0,0,0,0,0
,0,0,0,0,0,0,0,0,
|0,0,0,0,0,0,0,0,0,0,0,0,0,0,0,0,0,0
,0,0,0,0,110,0,77,0,0,0,0,0,0,0,0,0,98,0
,89,0,0,0,0,0,0,0,0,0,103,0,0,0,0,0,0,79
,124,0,0,0,85,0,0,0,
|0,0,0,0,0,0,0,0,73,86,0,80,132,148,0,132,0,92
,122,0,0,85,146,122,67,105,0,0,0,0,0,70,0,0,0,54
,0,0,52,0,0,136,0,104,78,0,132,94,0,0,51,0,0,0
,0,0,0,141,108,69,0,0,
|0,0,0,0,0,0,0,0,0,0,0,0,0,0,0,0,0,0
,0,0,0,0,0,0,0,0,0,0,0,0,0,0,0,0,0,0
,102,0,76,0,0,0,0,0,0,0,0,0,0,0,0,0,0,132
,0,0,0,0,119,0,0,0,
|0,0,0,0,0,0,0,0,0,0,0,0,0,0,0,0,0,0
,0,0,0,0,0,0,0,0,69,0,0,0,0,0,0,0,0,0
,116,0,0,0,0,0,0,0,0,0,139,0,0,0,0,0,0,121
,0,0,0,0,0,0,0,0,
|0,0,0,0,0,0,0,0,0,0,0,0,0,0,0,0,0,0
,0,0,0,0,115,0,118,132,0,0,0,0,0,0,0,121,115,78
,0,0,0,0,0,0,0,0,0,0,0,79,0,0,0,0,0,0
,0,117,0,0,0,0,0,0,
|0,0,0,0,0,0,0,0,0,88,64,0,126,96,0,0,0,122
,0,110,0,0,54,145,0,109,0,0,0,0,0,55,0,0,89,145
,74,0,0,0,0,92,0,120,97,0,108,0,0,0,101,66,122,0
,110,0,0,0,88,101,0,0,
|0,0,0,0,0,0,0,0,0,0,0,0,0,0,0,0,0,0,0,0,0,0,0,0,0,0,0,0,0,0,0,0,0,0,0,0,0
,0,0,0,0,0,0,0,0,0,0,0,0,0,0,0,0,0,0,0,0,0,0,0,0,0|];
max_time=5000;
